NAME : city031
COMMENT : a comment by the user
TYPE : TSP
DIMENSION : 10
EDGE_WEIGHT_TYPE : EXPLICIT
EDGE_WEIGHT_FORMAT: FULL_MATRIX
EDGE_WEIGHT_SECTION
0 96097 42376 95826 84969 95348 32217 92706 72784 102420
96097 0 63505 60827 38897 26627 72069 60415 58077 22203
42376 63505 0 88887 69584 55443 41340 86330 31016 63655
95826 60827 88887 0 23345 85211 63639 3162 103174 82855
84969 38897 69584 23345 0 62128 53712 22203 80622 60415
95348 26627 55443 85211 62128 0 79075 84314 37947 9486
32217 72069 41340 63639 53712 79075 0 60530 69892 83934
92706 60415 86330 3162 22203 84314 60530 0 101257 82298
72784 58077 31016 103174 80622 37947 69892 101257 0 47434
102420 22203 63655 82855 60415 9486 83934 82298 47434 0
EOF
